proyfinal/src/viki/013/experimentInOfficeAgust.take6.output/329f1281-ebd0-4b9f-9e1f-45a1093a2208.als.dat
{'cnf.clauses': '118081',
 'cnf.totvars': '69608',
 'conflict literals': '10',
 'conflicts': '8',
 'decisions': '1194',
 'memused.mb': '16.65',
 'outcome': 'UNSAT',
 'propagations': '25205',
 'restarts': '1',
 'solver.msecs': 34,
 'task.msecs': 81}
