proyfinal/src/viki/013/experimentInOfficeAgust.take6.output/329f1281-ebd0-4b9f-9e1f-45a1093a2208.als.out
Reading from standard input... Use '--help' for help.
============================[ Problem Statistics ]=============================
|                                                                             |
|  Number of variables:         69608                                         |
|  Number of clauses:          118081                                         |
|  Parse time:                   0.03 s                                       |
|                                                                             |
============================[ Search Statistics ]==============================
| Conflicts |          ORIGINAL         |          LEARNT          | Progress |
|           |    Vars  Clauses Literals |    Limit  Clauses Lit/Cl |          |
===============================================================================
===============================================================================
restarts              : 1
conflicts             : 8              (232 /sec)
decisions             : 1194           (0.00 % random) (34645 /sec)
propagations          : 25205          (731343 /sec)
conflict literals     : 10             (0.00 % deleted)
Memory used           : 16.65 MB
CPU time              : 0.034464 s

UNSATISFIABLE
